COMUNI = {
	todi,
	gubbio,
	corciano,
};

NUMERO_COMUNI = 3;

ABITANTI_PER_COMUNE = [15, 30, 21];

STRADE_TRA_COMUNI = [|
	false, false, false |
	false, false, false |
	false, false, false |
|];

RICHIESTE = [|
	40, 33, 104, 6, 51 |
	5, 61, 148, 143, 0 |
	45, 125, 4, 65, 162 |
|];
